 S Li                                   
1.0
       20.0000000000         0.0000000000         0.0000000000
        0.0000000000        20.0000000000         0.0000000000
        0.0000000000         0.0000000000        20.0000000000
    S   Li
    1    2
Cartesian
     4.999999870         5.971114599         4.999999890
     3.785188858         4.747747441         3.785188828
     6.214821682         4.747747441         6.214821442
