 S Li                                   
1.0
       20.0000000000         0.0000000000         0.0000000000
        0.0000000000        20.0000000000         0.0000000000
        0.0000000000         0.0000000000        20.0000000000
    S   Li
    2    2
Cartesian
     8.066561964        10.001852468        11.047704600
    10.243916975        10.065050719        11.055968719
     9.209068712         8.284526369        10.239210417
     9.111668150        11.668385588        10.028732766
