 &CONTROL
 calculation = 'relax'
 title = 'pwscf'
 restart_mode = 'from_scratch'
 outdir = './'
 prefix = 'pwscf'
 wf_collect = .true.
 pseudo_dir = './'
 etot_conv_thr = 1.0D-6
 forc_conv_thr = 1.0D-6
 tstress = .true.
 tprnfor = .true.
 /
 &SYSTEM
 ibrav = 0
 nat=           4
 ntyp=           2
 ecutwfc = 50
 ecutrho = 400
 occupations = 'smearing'
 degauss = 0.001
 smearing = 'gaussian'
 /
 &ELECTRONS
 electron_maxstep = 250
 conv_thr = 1.0D-10
 diagonalization = 'cg'
 /
  &IONS
 ion_dynamics = 'bfgs'
 pot_extrapolation = 'second_order'
 wfc_extrapolation = 'second_order'
 /
 &CELL
 cell_dynamics = 'bfgs'
 press_conv_thr = 0.1
 /
 ATOMIC_SPECIES
 S  ATOMIC_MASS    S_PSEUdo
 Li ATOMIC_MASS   Li_PSEUdo
 
 K_POINTS { automatic }
   1   1   1   0.000000   0.000000   0.000000
 
 CELL_PARAMETERS (angstrom)
   20.0000000000    0.0000000000    0.0000000000
    0.0000000000   20.0000000000    0.0000000000
    0.0000000000    0.0000000000   20.0000000000
 
 ATOMIC_POSITIONS (crystal)
  S    0.4033280982    0.5000926234    0.5523852300
  S    0.5121958488    0.5032525360    0.5527984360
 Li    0.4604534356    0.4142263185    0.5119605209
 Li    0.4555834075    0.5834192794    0.5014366383
