 S                                      
1.0
       20.0000000000         0.0000000000         0.0000000000
        0.0000000000        20.0000000000         0.0000000000
        0.0000000000         0.0000000000        20.0000000000
    S
    8
Cartesian
     8.016415581        11.968284411         9.756535157
     9.796151930        12.619064283        10.570270782
    11.364625611        11.950924126         9.409950313
    12.141825451        10.228320867        10.235537767
    11.333356071         8.587479905         9.283372771
     9.752352839         7.862780540        10.391601415
     7.985492688         8.604867675         9.629890957
     7.406641955        10.253198752        10.725726658
