 S Li                                   
1.0
       20.0000000000         0.0000000000         0.0000000000
        0.0000000000        20.0000000000         0.0000000000
        0.0000000000         0.0000000000        20.0000000000
    S   Li
    8    2
Cartesian
     7.915680204        11.968470547        11.159265780
     9.858325313        12.626887143        11.284659206
    10.792204951        12.498648292         9.420600112
    12.345945613        11.153979794         9.482615047
    11.820477244         9.300745442         8.697329449
    11.393179326         7.885860090        10.143298512
     7.551010842         8.619659101        10.313045760
     7.691553528        10.011910973        11.835671090
     9.564128232         8.509903358        11.527403316
     9.500671264         8.595278585         8.944224826
