 S Li                                   
1.0
       20.0000000000         0.0000000000         0.0000000000
        0.0000000000        20.0000000000         0.0000000000
        0.0000000000         0.0000000000        20.0000000000
    S   Li
    4    2
Cartesian
     8.948040196        10.713283901         8.536795106
    10.964695443        10.735174601         9.208113366
    11.708623318         8.851095560         8.756162280
     8.082810134         9.072650990         9.467650604
     9.596739466         8.538578022         7.761897778
    10.177500803         8.894627736        10.529391095
