 S Li                                   
1.0
       20.0000000000         0.0000000000         0.0000000000
        0.0000000000        20.0000000000         0.0000000000
        0.0000000000         0.0000000000        20.0000000000
    S   Li
    6    2
Cartesian
     7.229529469        10.196680660         8.538413697
     8.448995817        11.393143312         9.678233043
    10.424173480        11.364662814         8.883526262
    11.544169328         9.923873501         9.855460343
    11.227257995         8.089522099         8.948384640
     7.427044914         8.222608321         9.168550706
     9.450664943         8.705499906        10.461766443
     9.231483973         8.921519067         7.753594105
